89
125
100	15
99	10
98	7
97	3
96	4
95	8
94	9
93	10
92	5
91	9
90	7
89	10
88	6
87	8
86	3
85	11
84	11
83	11
82	8
81	8
80	9
79	8
78	5
77	8
76	10
75	12
74	7
73	9
72	12
71	6
70	11
69	3
68	12
67	10
66	7
65	11
64	10
63	6
62	8
61	8
60	10
59	7
58	13
57	9
56	8
55	6
54	6
53	10
52	15
51	4
50	8
49	11
48	10
47	5
46	4
45	12
44	10
43	11
42	12
41	11
40	11
39	7
38	5
37	8
36	8
35	11
34	5
33	14
32	5
31	12
30	7
29	11
28	8
27	14
26	10
25	6
24	9
23	6
22	7
21	6
20	3
19	11
18	6
17	5
16	6
15	11
14	5
13	7
12	9
